400, 40141
337, 337
123, 123
1, 1
56, 56
234, 234
328, 328
86, 86
189, 189
60, 60
70, 70
122, 122
279, 279
143, 143
363, 363
260, 260
70, 70
116, 116
222, 222
6, 6
121, 121
295, 295
313, 313
59, 59
124, 124
288, 288
41, 41
351, 351
302, 302
182, 182
274, 274
155, 155
240, 240
17, 17
272, 272
203, 203
42, 42
250, 250
312, 312
94, 94
295, 295
81, 81
285, 285
90, 90
225, 225
235, 235
206, 206
393, 393
136, 136
390, 390
316, 316
4, 4
123, 123
26, 26
170, 170
298, 298
297, 297
381, 381
29, 29
301, 301
113, 113
131, 131
83, 83
217, 217
293, 293
97, 97
31, 31
33, 33
253, 253
60, 60
162, 162
57, 57
24, 24
3, 3
167, 167
218, 218
189, 189
118, 118
357, 357
181, 181
16, 16
1, 1
135, 135
135, 135
241, 241
41, 41
119, 119
373, 373
94, 94
321, 321
278, 278
309, 309
264, 264
25, 25
217, 217
392, 392
339, 339
52, 52
62, 62
216, 216
262, 262
85, 85
364, 364
329, 329
211, 211
182, 182
232, 232
15, 15
17, 17
340, 340
276, 276
397, 397
276, 276
378, 378
146, 146
117, 117
158, 158
8, 8
278, 278
241, 241
319, 319
399, 399
249, 249
76, 76
232, 232
268, 268
346, 346
253, 253
78, 78
399, 399
190, 190
321, 321
201, 201
135, 135
153, 153
229, 229
76, 76
237, 237
197, 197
301, 301
351, 351
153, 153
287, 287
212, 212
24, 24
196, 196
113, 113
384, 384
40, 40
283, 283
265, 265
273, 273
177, 177
156, 156
185, 185
390, 390
133, 133
385, 385
328, 328
299, 299
314, 314
294, 294
38, 38
387, 387
202, 202
200, 200
92, 92
15, 15
215, 215
92, 92
2, 2
360, 360
236, 236
202, 202
282, 282
190, 190
142, 142
212, 212
313, 313
285, 285
161, 161
182, 182
246, 246
73, 73
23, 23
172, 172
203, 203
311, 311
179, 179
378, 378
217, 217
311, 311
236, 236
380, 380
72, 72
385, 385
205, 205
283, 283
27, 27
171, 171
393, 393
137, 137
386, 386
244, 244
396, 396
217, 217
313, 313
192, 192
44, 44
62, 62
46, 46
1, 1
286, 286
158, 158
304, 304
366, 366
325, 325
242, 242
322, 322
386, 386
230, 230
349, 349
95, 95
244, 244
7, 7
310, 310
296, 296
335, 335
37, 37
148, 148
249, 249
173, 173
357, 357
102, 102
9, 9
117, 117
50, 50
60, 60
48, 48
189, 189
69, 69
325, 325
275, 275
190, 190
35, 35
341, 341
106, 106
307, 307
144, 144
163, 163
371, 371
365, 365
289, 289
141, 141
112, 112
103, 103
383, 383
152, 152
107, 107
112, 112
71, 71
104, 104
41, 41
298, 298
271, 271
391, 391
76, 76
126, 126
211, 211
134, 134
371, 371
218, 218
269, 269
14, 14
333, 333
329, 329
115, 115
289, 289
234, 234
317, 317
331, 331
306, 306
194, 194
283, 283
297, 297
238, 238
142, 142
338, 338
249, 249
69, 69
260, 260
154, 154
167, 167
265, 265
33, 33
85, 85
43, 43
130, 130
399, 399
37, 37
67, 67
315, 315
38, 38
266, 266
217, 217
125, 125
223, 223
22, 22
228, 228
389, 389
19, 19
191, 191
186, 186
356, 356
130, 130
351, 351
306, 306
36, 36
303, 303
124, 124
135, 135
194, 194
264, 264
303, 303
265, 265
13, 13
340, 340
291, 291
62, 62
217, 217
373, 373
12, 12
182, 182
31, 31
29, 29
258, 258
108, 108
5, 5
93, 93
104, 104
280, 280
21, 21
137, 137
269, 269
145, 145
189, 189
231, 231
31, 31
176, 176
227, 227
198, 198
118, 118
336, 336
163, 163
331, 331
100, 100
337, 337
230, 230
358, 358
263, 263
43, 43
304, 304
291, 291
345, 345
192, 192
295, 295
61, 61
133, 133
394, 394
299, 299
189, 189
165, 165
148, 148
342, 342
64, 64
204, 204
357, 357
145, 145
182, 182
45, 45
374, 374
96, 96
103, 103
246, 246
133, 133
299, 299
400, 400
125, 125
178, 178
154, 154
235, 235
54, 54
359, 359
269, 269
204, 204
190, 190
180, 180
181, 181
392, 392
311, 311
152, 152
